c ren 1 -> 1
c ren 2 -> 2
c ren 3 -> 3
c ren 4 -> 4
c ren 5 -> 5
c ren 6 -> 6
c ren 7 -> 7
c ren 8 -> 8
c ren 9 -> 9
c ren 10 -> 10
c ren 11 -> 11
c ren 12 -> 12
c ren 13 -> 13
c ren 14 -> 14
c ren 15 -> 15
c ren 16 -> 16
c ren 17 -> 17
c ren 18 -> 18
c ren 19 -> 19
c ren 21 -> 20
c ren 24 -> 21
c ren 28 -> 22
c ren 34 -> 23
c ren 37 -> 24
c ren 42 -> 25
c ren 45 -> 26
p cnf 26 47
a 1 2 3 4 5 6 7 8 9 10 11 12 13 0
d 14 2 5 0
d 15 11 12 0
d 16 1 4 0
d 17 2 5 0
d 18 3 6 0
d 19 3 6 0
e 20 21 22 23 24 25 26 0
-2 -5 7 20 0
-2 5 -7 20 0
2 5 7 20 0
2 -5 -7 20 0
1 4 8 21 0
1 -4 -8 21 0
-9 -10 18 19 -20 -21 -22 -23 -24 -25 -26 0
-3 -6 9 22 0
-3 6 -9 22 0
3 6 9 22 0
3 -6 -9 22 0
3 10 -19 -20 -21 -22 -23 -24 -25 -26 0
-7 -8 -10 23 0
5 8 10 23 0
-2 -5 -10 23 0
2 8 10 23 0
5 7 10 23 0
6 10 -19 -20 -21 -22 -23 -24 -25 -26 0
-11 -18 24 0
11 18 24 0
-13 -14 -16 25 0
13 16 17 25 0
-13 -17 25 0
13 14 17 25 0
6 9 -19 -20 -21 -22 -23 -24 -25 -26 0
-12 -13 26 0
12 13 26 0
3 9 -13 -18 -20 -21 -22 -23 -24 -25 -26 0
-1 4 -8 21 0
-1 -4 8 21 0
7 -8 -14 -16 -20 -21 -22 -23 -24 -25 -26 0
-7 8 14 16 -20 -21 -22 -23 -24 -25 -26 0
1 4 -20 -21 -22 -23 -24 -25 -26 0
7 8 -14 16 -20 -21 -22 -23 -24 -25 -26 0
-7 8 -14 -16 -20 -21 -22 -23 -24 -25 -26 0
-7 -8 14 -16 -20 -21 -22 -23 -24 -25 -26 0
7 8 14 -16 -20 -21 -22 -23 -24 -25 -26 0
7 -8 14 16 -20 -21 -22 -23 -24 -25 -26 0
-9 -10 13 19 -20 -21 -22 -23 -24 -25 -26 0
-7 -8 -14 16 -20 -21 -22 -23 -24 -25 -26 0
9 -10 15 -20 -21 -22 -23 -24 -25 -26 0
6 10 -13 -18 -20 -21 -22 -23 -24 -25 -26 0
-9 -10 -15 -20 -21 -22 -23 -24 -25 -26 0
-9 10 15 -20 -21 -22 -23 -24 -25 -26 0
6 9 -13 -18 -20 -21 -22 -23 -24 -25 -26 0
9 10 -15 -20 -21 -22 -23 -24 -25 -26 0
3 10 -13 -18 -20 -21 -22 -23 -24 -25 -26 0
